c nIsolatedPIs 0
c maxPI 11
p cnf 453 1327
c gate 12 2 -3 0
2 -12 0
-3 -12 0
-2 3 12 0
c gate 13 4 5 0
4 -13 0
5 -13 0
-4 -5 13 0
c gate 14 8 -9 0
8 -14 0
-9 -14 0
-8 9 14 0
c gate 15 -13 14 0
-13 -15 0
14 -15 0
13 -14 15 0
c gate 16 -7 -8 0
-7 -16 0
-8 -16 0
7 8 16 0
c gate 17 5 7 0
5 -17 0
7 -17 0
-5 -7 17 0
c gate 18 -16 -17 0
-16 -18 0
-17 -18 0
16 17 18 0
c gate 19 9 -18 0
9 -19 0
-18 -19 0
-9 18 19 0
c gate 20 -15 -19 0
-15 -20 0
-19 -20 0
15 19 20 0
c gate 21 -1 4 0
-1 -21 0
4 -21 0
1 -4 21 0
c gate 22 -8 -21 0
-8 -22 0
-21 -22 0
8 21 22 0
c gate 23 -16 -22 0
-16 -23 0
-22 -23 0
16 22 23 0
c gate 24 -4 7 0
-4 -24 0
7 -24 0
4 -7 24 0
c gate 25 5 -24 0
5 -25 0
-24 -25 0
-5 24 25 0
c gate 26 -23 25 0
-23 -26 0
25 -26 0
23 -25 26 0
c gate 27 20 -26 0
20 -27 0
-26 -27 0
-20 26 27 0
c gate 28 -2 -7 0
-2 -28 0
-7 -28 0
2 7 28 0
c gate 29 3 -28 0
3 -29 0
-28 -29 0
-3 28 29 0
c gate 30 -9 -29 0
-9 -30 0
-29 -30 0
9 29 30 0
c gate 31 -27 30 0
-27 -31 0
30 -31 0
27 -30 31 0
c gate 32 -12 -31 0
-12 -32 0
-31 -32 0
12 31 32 0
c gate 33 2 10 0
2 -33 0
10 -33 0
-2 -10 33 0
c gate 34 -2 -3 0
-2 -34 0
-3 -34 0
2 3 34 0
c gate 35 -7 10 0
-7 -35 0
10 -35 0
7 -10 35 0
c gate 36 7 -10 0
7 -36 0
-10 -36 0
-7 10 36 0
c gate 37 -35 -36 0
-35 -37 0
-36 -37 0
35 36 37 0
c gate 38 34 -37 0
34 -38 0
-37 -38 0
-34 37 38 0
c gate 39 -33 -38 0
-33 -39 0
-38 -39 0
33 38 39 0
c gate 40 8 9 0
8 -40 0
9 -40 0
-8 -9 40 0
c gate 41 -39 40 0
-39 -41 0
40 -41 0
39 -40 41 0
c gate 42 -2 10 0
-2 -42 0
10 -42 0
2 -10 42 0
c gate 43 3 -42 0
3 -43 0
-42 -43 0
-3 42 43 0
c gate 44 3 9 0
3 -44 0
9 -44 0
-3 -9 44 0
c gate 45 -40 -44 0
-40 -45 0
-44 -45 0
40 44 45 0
c gate 46 42 45 0
42 -46 0
45 -46 0
-42 -45 46 0
c gate 47 -43 -46 0
-43 -47 0
-46 -47 0
43 46 47 0
c gate 48 -41 47 0
-41 -48 0
47 -48 0
41 -47 48 0
c gate 49 32 -48 0
32 -49 0
-48 -49 0
-32 48 49 0
c gate 50 -11 34 0
-11 -50 0
34 -50 0
11 -34 50 0
c gate 51 -27 48 0
-27 -51 0
48 -51 0
27 -48 51 0
c gate 52 50 -51 0
50 -52 0
-51 -52 0
-50 51 52 0
c gate 53 2 -11 0
2 -53 0
-11 -53 0
-2 11 53 0
c gate 54 -2 11 0
-2 -54 0
11 -54 0
2 -11 54 0
c gate 55 -53 -54 0
-53 -55 0
-54 -55 0
53 54 55 0
c gate 56 -3 -48 0
-3 -56 0
-48 -56 0
3 48 56 0
c gate 57 3 48 0
3 -57 0
48 -57 0
-3 -48 57 0
c gate 58 -56 -57 0
-56 -58 0
-57 -58 0
56 57 58 0
c gate 59 -55 -58 0
-55 -59 0
-58 -59 0
55 58 59 0
c gate 60 -11 48 0
-11 -60 0
48 -60 0
11 -48 60 0
c gate 61 2 -56 0
2 -61 0
-56 -61 0
-2 56 61 0
c gate 62 -60 61 0
-60 -62 0
61 -62 0
60 -61 62 0
c gate 63 -59 -62 0
-59 -63 0
-62 -63 0
59 62 63 0
c gate 64 -52 63 0
-52 -64 0
63 -64 0
52 -63 64 0
c gate 65 -10 -11 0
-10 -65 0
-11 -65 0
10 11 65 0
c gate 66 34 65 0
34 -66 0
65 -66 0
-34 -65 66 0
c gate 67 64 66 0
64 -67 0
66 -67 0
-64 -66 67 0
c gate 68 -64 -66 0
-64 -68 0
-66 -68 0
64 66 68 0
c gate 69 -9 11 0
-9 -69 0
11 -69 0
9 -11 69 0
c gate 70 9 10 0
9 -70 0
10 -70 0
-9 -10 70 0
c gate 71 -69 -70 0
-69 -71 0
-70 -71 0
69 70 71 0
c gate 72 -27 -71 0
-27 -72 0
-71 -72 0
27 71 72 0
c gate 73 27 65 0
27 -73 0
65 -73 0
-27 -65 73 0
c gate 74 8 -73 0
8 -74 0
-73 -74 0
-8 73 74 0
c gate 75 -72 74 0
-72 -75 0
74 -75 0
72 -74 75 0
c gate 76 -11 -27 0
-11 -76 0
-27 -76 0
11 27 76 0
c gate 77 11 27 0
11 -77 0
27 -77 0
-11 -27 77 0
c gate 78 -76 -77 0
-76 -78 0
-77 -78 0
76 77 78 0
c gate 79 -9 -11 0
-9 -79 0
-11 -79 0
9 11 79 0
c gate 80 -8 -79 0
-8 -80 0
-79 -80 0
8 79 80 0
c gate 81 -78 80 0
-78 -81 0
80 -81 0
78 -80 81 0
c gate 82 -8 -10 0
-8 -82 0
-10 -82 0
8 10 82 0
c gate 83 79 82 0
79 -83 0
82 -83 0
-79 -82 83 0
c gate 84 10 11 0
10 -84 0
11 -84 0
-10 -11 84 0
c gate 85 -83 -84 0
-83 -85 0
-84 -85 0
83 84 85 0
c gate 86 -81 85 0
-81 -86 0
85 -86 0
81 -85 86 0
c gate 87 -75 86 0
-75 -87 0
86 -87 0
75 -86 87 0
c gate 88 -27 87 0
-27 -88 0
87 -88 0
27 -87 88 0
c gate 89 27 -87 0
27 -89 0
-87 -89 0
-27 87 89 0
c gate 90 -88 -89 0
-88 -90 0
-89 -90 0
88 89 90 0
c gate 91 -68 90 0
-68 -91 0
90 -91 0
68 -90 91 0
c gate 92 68 88 0
68 -92 0
88 -92 0
-68 -88 92 0
c gate 93 34 -92 0
34 -93 0
-92 -93 0
-34 92 93 0
c gate 94 -91 93 0
-91 -94 0
93 -94 0
91 -93 94 0
c gate 95 -67 94 0
-67 -95 0
94 -95 0
67 -94 95 0
c gate 96 49 -95 0
49 -96 0
-95 -96 0
-49 95 96 0
c gate 97 9 96 0
9 -97 0
96 -97 0
-9 -96 97 0
c gate 98 -32 48 0
-32 -98 0
48 -98 0
32 -48 98 0
c gate 99 -9 -49 0
-9 -99 0
-49 -99 0
9 49 99 0
c gate 100 -98 99 0
-98 -100 0
99 -100 0
98 -99 100 0
c gate 101 -95 100 0
-95 -101 0
100 -101 0
95 -100 101 0
c gate 102 -97 -101 0
-97 -102 0
-101 -102 0
97 101 102 0
c gate 103 11 -102 0
11 -103 0
-102 -103 0
-11 102 103 0
c gate 104 -11 -95 0
-11 -104 0
-95 -104 0
11 95 104 0
c gate 105 -9 32 0
-9 -105 0
32 -105 0
9 -32 105 0
c gate 106 9 12 0
9 -106 0
12 -106 0
-9 -12 106 0
c gate 107 -105 -106 0
-105 -107 0
-106 -107 0
105 106 107 0
c gate 108 11 -48 0
11 -108 0
-48 -108 0
-11 48 108 0
c gate 109 -60 -108 0
-60 -109 0
-108 -109 0
60 108 109 0
c gate 110 -107 -109 0
-107 -110 0
-109 -110 0
107 109 110 0
c gate 111 -104 110 0
-104 -111 0
110 -111 0
104 -110 111 0
c gate 112 79 96 0
79 -112 0
96 -112 0
-79 -96 112 0
c gate 113 95 98 0
95 -113 0
98 -113 0
-95 -98 113 0
c gate 114 -112 -113 0
-112 -114 0
-113 -114 0
112 113 114 0
c gate 115 -111 114 0
-111 -115 0
114 -115 0
111 -114 115 0
c gate 116 9 11 0
9 -116 0
11 -116 0
-9 -11 116 0
c gate 117 -79 -116 0
-79 -117 0
-116 -117 0
79 116 117 0
c gate 118 -95 117 0
-95 -118 0
117 -118 0
95 -117 118 0
c gate 119 95 -117 0
95 -119 0
-117 -119 0
-95 117 119 0
c gate 120 -64 -116 0
-64 -120 0
-116 -120 0
64 116 120 0
c gate 121 64 116 0
64 -121 0
116 -121 0
-64 -116 121 0
c gate 122 32 48 0
32 -122 0
48 -122 0
-32 -48 122 0
c gate 123 -121 122 0
-121 -123 0
122 -123 0
121 -122 123 0
c gate 124 -120 123 0
-120 -124 0
123 -124 0
120 -123 124 0
c gate 125 -119 124 0
-119 -125 0
124 -125 0
119 -124 125 0
c gate 126 -118 125 0
-118 -126 0
125 -126 0
118 -125 126 0
c gate 127 11 94 0
11 -127 0
94 -127 0
-11 -94 127 0
c gate 128 -104 -127 0
-104 -128 0
-127 -128 0
104 127 128 0
c gate 129 -98 107 0
-98 -129 0
107 -129 0
98 -107 129 0
c gate 130 -128 129 0
-128 -130 0
129 -130 0
128 -129 130 0
c gate 131 -126 -130 0
-126 -131 0
-130 -131 0
126 130 131 0
c gate 132 115 131 0
115 -132 0
131 -132 0
-115 -131 132 0
c gate 133 -103 132 0
-103 -133 0
132 -133 0
103 -132 133 0
c gate 134 -7 -27 0
-7 -134 0
-27 -134 0
7 27 134 0
c gate 135 7 27 0
7 -135 0
27 -135 0
-7 -27 135 0
c gate 136 -134 -135 0
-134 -136 0
-135 -136 0
134 135 136 0
c gate 137 -6 -37 0
-6 -137 0
-37 -137 0
6 37 137 0
c gate 138 136 137 0
136 -138 0
137 -138 0
-136 -137 138 0
c gate 139 6 7 0
6 -139 0
7 -139 0
-6 -7 139 0
c gate 140 10 139 0
10 -140 0
139 -140 0
-10 -139 140 0
c gate 141 -27 140 0
-27 -141 0
140 -141 0
27 -140 141 0
c gate 142 -138 -141 0
-138 -142 0
-141 -142 0
138 141 142 0
c gate 143 8 -142 0
8 -143 0
-142 -143 0
-8 142 143 0
c gate 144 8 -20 0
8 -144 0
-20 -144 0
-8 20 144 0
c gate 145 -6 8 0
-6 -145 0
8 -145 0
6 -8 145 0
c gate 146 6 -8 0
6 -146 0
-8 -146 0
-6 8 146 0
c gate 147 -27 146 0
-27 -147 0
146 -147 0
27 -146 147 0
c gate 148 -145 -147 0
-145 -148 0
-147 -148 0
145 147 148 0
c gate 149 37 -148 0
37 -149 0
-148 -149 0
-37 148 149 0
c gate 150 -6 -7 0
-6 -150 0
-7 -150 0
6 7 150 0
c gate 151 -146 -150 0
-146 -151 0
-150 -151 0
146 150 151 0
c gate 152 -135 151 0
-135 -152 0
151 -152 0
135 -151 152 0
c gate 153 -149 -152 0
-149 -153 0
-152 -153 0
149 152 153 0
c gate 154 -144 -153 0
-144 -154 0
-153 -154 0
144 153 154 0
c gate 155 -143 -154 0
-143 -155 0
-154 -155 0
143 154 155 0
c gate 156 9 -155 0
9 -156 0
-155 -156 0
-9 155 156 0
c gate 157 8 10 0
8 -157 0
10 -157 0
-8 -10 157 0
c gate 158 -82 -157 0
-82 -158 0
-157 -158 0
82 157 158 0
c gate 159 -9 -145 0
-9 -159 0
-145 -159 0
9 145 159 0
c gate 160 158 -159 0
158 -160 0
-159 -160 0
-158 159 160 0
c gate 161 -136 160 0
-136 -161 0
160 -161 0
136 -160 161 0
c gate 162 7 158 0
7 -162 0
158 -162 0
-7 -158 162 0
c gate 163 6 -9 0
6 -163 0
-9 -163 0
-6 9 163 0
c gate 164 -35 163 0
-35 -164 0
163 -164 0
35 -163 164 0
c gate 165 -16 164 0
-16 -165 0
164 -165 0
16 -164 165 0
c gate 166 -162 165 0
-162 -166 0
165 -166 0
162 -165 166 0
c gate 167 -8 9 0
-8 -167 0
9 -167 0
8 -9 167 0
c gate 168 -10 150 0
-10 -168 0
150 -168 0
10 -150 168 0
c gate 169 167 168 0
167 -169 0
168 -169 0
-167 -168 169 0
c gate 170 -166 -169 0
-166 -170 0
-169 -170 0
166 169 170 0
c gate 171 -161 170 0
-161 -171 0
170 -171 0
161 -170 171 0
c gate 172 -156 171 0
-156 -172 0
171 -172 0
156 -171 172 0
c gate 173 9 -172 0
9 -173 0
-172 -173 0
-9 172 173 0
c gate 174 -9 171 0
-9 -174 0
171 -174 0
9 -171 174 0
c gate 175 -158 -174 0
-158 -175 0
-174 -175 0
158 174 175 0
c gate 176 -173 175 0
-173 -176 0
175 -176 0
173 -175 176 0
c gate 177 27 -172 0
27 -177 0
-172 -177 0
-27 172 177 0
c gate 178 -27 172 0
-27 -178 0
172 -178 0
27 -172 178 0
c gate 179 -177 -178 0
-177 -179 0
-178 -179 0
177 178 179 0
c gate 180 9 -157 0
9 -180 0
-157 -180 0
-9 157 180 0
c gate 181 179 180 0
179 -181 0
180 -181 0
-179 -180 181 0
c gate 182 -176 -181 0
-176 -182 0
-181 -182 0
176 181 182 0
c gate 183 -11 -182 0
-11 -183 0
-182 -183 0
11 182 183 0
c gate 184 -10 -78 0
-10 -184 0
-78 -184 0
10 78 184 0
c gate 185 84 -171 0
84 -185 0
-171 -185 0
-84 171 185 0
c gate 186 -184 -185 0
-184 -186 0
-185 -186 0
184 185 186 0
c gate 187 -70 186 0
-70 -187 0
186 -187 0
70 -186 187 0
c gate 188 11 -187 0
11 -188 0
-187 -188 0
-11 187 188 0
c gate 189 10 78 0
10 -189 0
78 -189 0
-10 -78 189 0
c gate 190 174 189 0
174 -190 0
189 -190 0
-174 -189 190 0
c gate 191 -8 -190 0
-8 -191 0
-190 -191 0
8 190 191 0
c gate 192 -188 191 0
-188 -192 0
191 -192 0
188 -191 192 0
c gate 193 9 189 0
9 -193 0
189 -193 0
-9 -189 193 0
c gate 194 -179 193 0
-179 -194 0
193 -194 0
179 -193 194 0
c gate 195 10 172 0
10 -195 0
172 -195 0
-10 -172 195 0
c gate 196 116 -195 0
116 -196 0
-195 -196 0
-116 195 196 0
c gate 197 -65 -189 0
-65 -197 0
-189 -197 0
65 189 197 0
c gate 198 171 -197 0
171 -198 0
-197 -198 0
-171 197 198 0
c gate 199 186 -198 0
186 -199 0
-198 -199 0
-186 198 199 0
c gate 200 -9 -199 0
-9 -200 0
-199 -200 0
9 199 200 0
c gate 201 8 -200 0
8 -201 0
-200 -201 0
-8 200 201 0
c gate 202 -196 201 0
-196 -202 0
201 -202 0
196 -201 202 0
c gate 203 -194 202 0
-194 -203 0
202 -203 0
194 -202 203 0
c gate 204 -192 -203 0
-192 -204 0
-203 -204 0
192 203 204 0
c gate 205 -183 -204 0
-183 -205 0
-204 -205 0
183 204 205 0
c gate 206 -27 205 0
-27 -206 0
205 -206 0
27 -205 206 0
c gate 207 48 179 0
48 -207 0
179 -207 0
-48 -179 207 0
c gate 208 -48 172 0
-48 -208 0
172 -208 0
48 -172 208 0
c gate 209 50 -208 0
50 -209 0
-208 -209 0
-50 208 209 0
c gate 210 -207 209 0
-207 -210 0
209 -210 0
207 -209 210 0
c gate 211 63 -210 0
63 -211 0
-210 -211 0
-63 210 211 0
c gate 212 66 -208 0
66 -212 0
-208 -212 0
-66 208 212 0
c gate 213 211 212 0
211 -213 0
212 -213 0
-211 -212 213 0
c gate 214 -211 -212 0
-211 -214 0
-212 -214 0
211 212 214 0
c gate 215 -213 -214 0
-213 -215 0
-214 -215 0
213 214 215 0
c gate 216 27 -205 0
27 -216 0
-205 -216 0
-27 205 216 0
c gate 217 215 -216 0
215 -217 0
-216 -217 0
-215 216 217 0
c gate 218 -206 217 0
-206 -218 0
217 -218 0
206 -217 218 0
c gate 219 206 -215 0
206 -219 0
-215 -219 0
-206 215 219 0
c gate 220 -205 213 0
-205 -220 0
213 -220 0
205 -213 220 0
c gate 221 34 -220 0
34 -221 0
-220 -221 0
-34 220 221 0
c gate 222 -219 221 0
-219 -222 0
221 -222 0
219 -221 222 0
c gate 223 -218 222 0
-218 -223 0
222 -223 0
218 -222 223 0
c gate 224 -11 -223 0
-11 -224 0
-223 -224 0
11 223 224 0
c gate 225 11 223 0
11 -225 0
223 -225 0
-11 -223 225 0
c gate 226 -224 -225 0
-224 -226 0
-225 -226 0
224 225 226 0
c gate 227 -9 211 0
-9 -227 0
211 -227 0
9 -211 227 0
c gate 228 -226 227 0
-226 -228 0
227 -228 0
226 -227 228 0
c gate 229 3 -172 0
3 -229 0
-172 -229 0
-3 172 229 0
c gate 230 -7 9 0
-7 -230 0
9 -230 0
7 -9 230 0
c gate 231 172 230 0
172 -231 0
230 -231 0
-172 -230 231 0
c gate 232 -229 -231 0
-229 -232 0
-231 -232 0
229 231 232 0
c gate 233 2 -232 0
2 -233 0
-232 -233 0
-2 232 233 0
c gate 234 -19 -177 0
-19 -234 0
-177 -234 0
19 177 234 0
c gate 235 -2 -234 0
-2 -235 0
-234 -235 0
2 234 235 0
c gate 236 34 172 0
34 -236 0
172 -236 0
-34 -172 236 0
c gate 237 -229 -236 0
-229 -237 0
-236 -237 0
229 236 237 0
c gate 238 7 -237 0
7 -238 0
-237 -238 0
-7 237 238 0
c gate 239 -235 -238 0
-235 -239 0
-238 -239 0
235 238 239 0
c gate 240 -233 239 0
-233 -240 0
239 -240 0
233 -239 240 0
c gate 241 -44 240 0
-44 -241 0
240 -241 0
44 -240 241 0
c gate 242 -11 211 0
-11 -242 0
211 -242 0
11 -211 242 0
c gate 243 11 -63 0
11 -243 0
-63 -243 0
-11 63 243 0
c gate 244 -242 -243 0
-242 -244 0
-243 -244 0
242 243 244 0
c gate 245 9 -244 0
9 -245 0
-244 -245 0
-9 244 245 0
c gate 246 226 245 0
226 -246 0
245 -246 0
-226 -245 246 0
c gate 247 -241 -246 0
-241 -247 0
-246 -247 0
241 246 247 0
c gate 248 -228 247 0
-228 -248 0
247 -248 0
228 -247 248 0
c gate 249 -48 -241 0
-48 -249 0
-241 -249 0
48 241 249 0
c gate 250 109 117 0
109 -250 0
117 -250 0
-109 -117 250 0
c gate 251 244 250 0
244 -251 0
250 -251 0
-244 -250 251 0
c gate 252 223 -251 0
223 -252 0
-251 -252 0
-223 251 252 0
c gate 253 48 244 0
48 -253 0
244 -253 0
-48 -244 253 0
c gate 254 242 250 0
242 -254 0
250 -254 0
-242 -250 254 0
c gate 255 -253 -254 0
-253 -255 0
-254 -255 0
253 254 255 0
c gate 256 -223 255 0
-223 -256 0
255 -256 0
223 -255 256 0
c gate 257 -252 -256 0
-252 -257 0
-256 -257 0
252 256 257 0
c gate 258 241 -257 0
241 -258 0
-257 -258 0
-241 257 258 0
c gate 259 -249 -258 0
-249 -259 0
-258 -259 0
249 258 259 0
c gate 260 -248 259 0
-248 -260 0
259 -260 0
248 -259 260 0
c gate 261 -223 249 0
-223 -261 0
249 -261 0
223 -249 261 0
c gate 262 48 241 0
48 -262 0
241 -262 0
-48 -241 262 0
c gate 263 223 262 0
223 -263 0
262 -263 0
-223 -262 263 0
c gate 264 -261 -263 0
-261 -264 0
-263 -264 0
261 263 264 0
c gate 265 9 -264 0
9 -265 0
-264 -265 0
-9 264 265 0
c gate 266 -9 -249 0
-9 -266 0
-249 -266 0
9 249 266 0
c gate 267 -262 266 0
-262 -267 0
266 -267 0
262 -266 267 0
c gate 268 -223 267 0
-223 -268 0
267 -268 0
223 -267 268 0
c gate 269 -265 -268 0
-265 -269 0
-268 -269 0
265 268 269 0
c gate 270 11 -269 0
11 -270 0
-269 -270 0
-11 269 270 0
c gate 271 9 -241 0
9 -271 0
-241 -271 0
-9 241 271 0
c gate 272 -9 240 0
-9 -272 0
240 -272 0
9 -240 272 0
c gate 273 -271 -272 0
-271 -273 0
-272 -273 0
271 272 273 0
c gate 274 -262 -273 0
-262 -274 0
-273 -274 0
262 273 274 0
c gate 275 -226 274 0
-226 -275 0
274 -275 0
226 -274 275 0
c gate 276 79 261 0
79 -276 0
261 -276 0
-79 -261 276 0
c gate 277 -109 273 0
-109 -277 0
273 -277 0
109 -273 277 0
c gate 278 -224 277 0
-224 -278 0
277 -278 0
224 -277 278 0
c gate 279 -276 -278 0
-276 -279 0
-278 -279 0
276 278 279 0
c gate 280 -275 279 0
-275 -280 0
279 -280 0
275 -279 280 0
c gate 281 -270 280 0
-270 -281 0
280 -281 0
270 -280 281 0
c gate 282 -260 281 0
-260 -282 0
281 -282 0
260 -281 282 0
c gate 283 -133 282 0
-133 -283 0
282 -283 0
133 -282 283 0
c gate 284 133 -282 0
133 -284 0
-282 -284 0
-133 282 284 0
c gate 285 -95 223 0
-95 -285 0
223 -285 0
95 -223 285 0
c gate 286 95 -223 0
95 -286 0
-223 -286 0
-95 223 286 0
c gate 287 -2 -10 0
-2 -287 0
-10 -287 0
2 10 287 0
c gate 288 -33 -287 0
-33 -288 0
-287 -288 0
33 287 288 0
c gate 289 7 8 0
7 -289 0
8 -289 0
-7 -8 289 0
c gate 290 -16 -289 0
-16 -290 0
-289 -290 0
16 289 290 0
c gate 291 6 34 0
6 -291 0
34 -291 0
-6 -34 291 0
c gate 292 -44 -291 0
-44 -292 0
-291 -292 0
44 291 292 0
c gate 293 290 -292 0
290 -293 0
-292 -293 0
-290 292 293 0
c gate 294 -6 34 0
-6 -294 0
34 -294 0
6 -34 294 0
c gate 295 7 44 0
7 -295 0
44 -295 0
-7 -44 295 0
c gate 296 -106 -295 0
-106 -296 0
-295 -296 0
106 295 296 0
c gate 297 -294 296 0
-294 -297 0
296 -297 0
294 -296 297 0
c gate 298 8 -297 0
8 -298 0
-297 -298 0
-8 297 298 0
c gate 299 -293 -298 0
-293 -299 0
-298 -299 0
293 298 299 0
c gate 300 -44 299 0
-44 -300 0
299 -300 0
44 -299 300 0
c gate 301 288 -300 0
288 -301 0
-300 -301 0
-288 300 301 0
c gate 302 3 -301 0
3 -302 0
-301 -302 0
-3 301 302 0
c gate 303 -22 -145 0
-22 -303 0
-145 -303 0
22 145 303 0
c gate 304 4 303 0
4 -304 0
303 -304 0
-4 -303 304 0
c gate 305 4 145 0
4 -305 0
145 -305 0
-4 -145 305 0
c gate 306 -159 -305 0
-159 -306 0
-305 -306 0
159 305 306 0
c gate 307 5 -306 0
5 -307 0
-306 -307 0
-5 306 307 0
c gate 308 -304 307 0
-304 -308 0
307 -308 0
304 -307 308 0
c gate 309 5 146 0
5 -309 0
146 -309 0
-5 -146 309 0
c gate 310 -145 -309 0
-145 -310 0
-309 -310 0
145 309 310 0
c gate 311 9 -310 0
9 -311 0
-310 -311 0
-9 310 311 0
c gate 312 -5 -167 0
-5 -312 0
-167 -312 0
5 167 312 0
c gate 313 303 312 0
303 -313 0
312 -313 0
-303 -312 313 0
c gate 314 -311 -313 0
-311 -314 0
-313 -314 0
311 313 314 0
c gate 315 -308 314 0
-308 -315 0
314 -315 0
308 -314 315 0
c gate 316 7 -315 0
7 -316 0
-315 -316 0
-7 315 316 0
c gate 317 -4 -316 0
-4 -317 0
-316 -317 0
4 316 317 0
c gate 318 4 7 0
4 -318 0
7 -318 0
-4 -7 318 0
c gate 319 -315 318 0
-315 -319 0
318 -319 0
315 -318 319 0
c gate 320 -8 79 0
-8 -320 0
79 -320 0
8 -79 320 0
c gate 321 -319 320 0
-319 -321 0
320 -321 0
319 -320 321 0
c gate 322 -317 321 0
-317 -322 0
321 -322 0
317 -321 322 0
c gate 323 -11 -315 0
-11 -323 0
-315 -323 0
11 315 323 0
c gate 324 117 290 0
117 -324 0
290 -324 0
-117 -290 324 0
c gate 325 -323 324 0
-323 -325 0
324 -325 0
323 -324 325 0
c gate 326 9 -290 0
9 -326 0
-290 -326 0
-9 290 326 0
c gate 327 -14 -326 0
-14 -327 0
-326 -327 0
14 326 327 0
c gate 328 323 -327 0
323 -328 0
-327 -328 0
-323 327 328 0
c gate 329 11 -290 0
11 -329 0
-290 -329 0
-11 290 329 0
c gate 330 -14 -167 0
-14 -330 0
-167 -330 0
14 167 330 0
c gate 331 329 330 0
329 -331 0
330 -331 0
-329 -330 331 0
c gate 332 -328 -331 0
-328 -332 0
-331 -332 0
328 331 332 0
c gate 333 -325 332 0
-325 -333 0
332 -333 0
325 -332 333 0
c gate 334 -322 333 0
-322 -334 0
333 -334 0
322 -333 334 0
c gate 335 -288 299 0
-288 -335 0
299 -335 0
288 -299 335 0
c gate 336 -44 335 0
-44 -336 0
335 -336 0
44 -335 336 0
c gate 337 334 336 0
334 -337 0
336 -337 0
-334 -336 337 0
c gate 338 -302 -337 0
-302 -338 0
-337 -338 0
302 337 338 0
c gate 339 11 -338 0
11 -339 0
-338 -339 0
-11 338 339 0
c gate 340 -288 339 0
-288 -340 0
339 -340 0
288 -339 340 0
c gate 341 -2 65 0
-2 -341 0
65 -341 0
2 -65 341 0
c gate 342 -300 341 0
-300 -342 0
341 -342 0
300 -341 342 0
c gate 343 2 84 0
2 -343 0
84 -343 0
-2 -84 343 0
c gate 344 45 343 0
45 -344 0
343 -344 0
-45 -343 344 0
c gate 345 -342 -344 0
-342 -345 0
-344 -345 0
342 344 345 0
c gate 346 -334 -345 0
-334 -346 0
-345 -346 0
334 345 346 0
c gate 347 -10 300 0
-10 -347 0
300 -347 0
10 -300 347 0
c gate 348 -11 -45 0
-11 -348 0
-45 -348 0
11 45 348 0
c gate 349 -55 -348 0
-55 -349 0
-348 -349 0
55 348 349 0
c gate 350 -347 349 0
-347 -350 0
349 -350 0
347 -349 350 0
c gate 351 334 350 0
334 -351 0
350 -351 0
-334 -350 351 0
c gate 352 -346 -351 0
-346 -352 0
-351 -352 0
346 351 352 0
c gate 353 -11 335 0
-11 -353 0
335 -353 0
11 -335 353 0
c gate 354 -334 353 0
-334 -354 0
353 -354 0
334 -353 354 0
c gate 355 352 -354 0
352 -355 0
-354 -355 0
-352 354 355 0
c gate 356 -3 -355 0
-3 -356 0
-355 -356 0
3 355 356 0
c gate 357 3 69 0
3 -357 0
69 -357 0
-3 -69 357 0
c gate 358 -3 -11 0
-3 -358 0
-11 -358 0
3 11 358 0
c gate 359 -299 358 0
-299 -359 0
358 -359 0
299 -358 359 0
c gate 360 -357 -359 0
-357 -360 0
-359 -360 0
357 359 360 0
c gate 361 288 -360 0
288 -361 0
-360 -361 0
-288 360 361 0
c gate 362 -54 -65 0
-54 -362 0
-65 -362 0
54 65 362 0
c gate 363 -84 -358 0
-84 -363 0
-358 -363 0
84 358 363 0
c gate 364 362 363 0
362 -364 0
363 -364 0
-362 -363 364 0
c gate 365 -300 364 0
-300 -365 0
364 -365 0
300 -364 365 0
c gate 366 -361 -365 0
-361 -366 0
-365 -366 0
361 365 366 0
c gate 367 -356 366 0
-356 -367 0
366 -367 0
356 -366 367 0
c gate 368 -340 367 0
-340 -368 0
367 -368 0
340 -367 368 0
c gate 369 -334 336 0
-334 -369 0
336 -369 0
334 -336 369 0
c gate 370 -301 -369 0
-301 -370 0
-369 -370 0
301 369 370 0
c gate 371 -11 -370 0
-11 -371 0
-370 -371 0
11 370 371 0
c gate 372 352 -371 0
352 -372 0
-371 -372 0
-352 371 372 0
c gate 373 -3 -372 0
-3 -373 0
-372 -373 0
3 372 373 0
c gate 374 -339 -365 0
-339 -374 0
-365 -374 0
339 365 374 0
c gate 375 -373 374 0
-373 -375 0
374 -375 0
373 -374 375 0
c gate 376 -368 375 0
-368 -376 0
375 -376 0
368 -375 376 0
c gate 377 368 -375 0
368 -377 0
-375 -377 0
-368 375 377 0
c gate 378 50 172 0
50 -378 0
172 -378 0
-50 -172 378 0
c gate 379 8 12 0
8 -379 0
12 -379 0
-8 -12 379 0
c gate 380 3 -10 0
3 -380 0
-10 -380 0
-3 10 380 0
c gate 381 -5 -6 0
-5 -381 0
-6 -381 0
5 6 381 0
c gate 382 5 6 0
5 -382 0
6 -382 0
-5 -6 382 0
c gate 383 -381 -382 0
-381 -383 0
-382 -383 0
381 382 383 0
c gate 384 287 383 0
287 -384 0
383 -384 0
-287 -383 384 0
c gate 385 -380 -384 0
-380 -385 0
-384 -385 0
380 384 385 0
c gate 386 -379 385 0
-379 -386 0
385 -386 0
379 -385 386 0
c gate 387 -9 -386 0
-9 -387 0
-386 -387 0
9 386 387 0
c gate 388 1 -318 0
1 -388 0
-318 -388 0
-1 318 388 0
c gate 389 -23 -388 0
-23 -389 0
-388 -389 0
23 388 389 0
c gate 390 -4 -5 0
-4 -390 0
-5 -390 0
4 5 390 0
c gate 391 -13 -390 0
-13 -391 0
-390 -391 0
13 390 391 0
c gate 392 8 -391 0
8 -392 0
-391 -392 0
-8 391 392 0
c gate 393 -9 -10 0
-9 -393 0
-10 -393 0
9 10 393 0
c gate 394 -392 393 0
-392 -394 0
393 -394 0
392 -393 394 0
c gate 395 -389 394 0
-389 -395 0
394 -395 0
389 -394 395 0
c gate 396 10 -139 0
10 -396 0
-139 -396 0
-10 139 396 0
c gate 397 -150 396 0
-150 -397 0
396 -397 0
150 -396 397 0
c gate 398 -395 -397 0
-395 -398 0
-397 -398 0
395 397 398 0
c gate 399 -11 -398 0
-11 -399 0
-398 -399 0
11 398 399 0
c gate 400 -386 -399 0
-386 -400 0
-399 -400 0
386 399 400 0
c gate 401 2 386 0
2 -401 0
386 -401 0
-2 -386 401 0
c gate 402 11 401 0
11 -402 0
401 -402 0
-11 -401 402 0
c gate 403 3 402 0
3 -403 0
402 -403 0
-3 -402 403 0
c gate 404 66 383 0
66 -404 0
383 -404 0
-66 -383 404 0
c gate 405 9 -404 0
9 -405 0
-404 -405 0
-9 404 405 0
c gate 406 -403 405 0
-403 -406 0
405 -406 0
403 -405 406 0
c gate 407 -400 406 0
-400 -407 0
406 -407 0
400 -406 407 0
c gate 408 -387 -407 0
-387 -408 0
-407 -408 0
387 407 408 0
c gate 409 3 -408 0
3 -409 0
-408 -409 0
-3 408 409 0
c gate 410 -11 398 0
-11 -410 0
398 -410 0
11 -398 410 0
c gate 411 -329 -410 0
-329 -411 0
-410 -411 0
329 410 411 0
c gate 412 2 -411 0
2 -412 0
-411 -412 0
-2 411 412 0
c gate 413 -2 411 0
-2 -413 0
411 -413 0
2 -411 413 0
c gate 414 -412 -413 0
-412 -414 0
-413 -414 0
412 413 414 0
c gate 415 -2 -385 0
-2 -415 0
-385 -415 0
2 385 415 0
c gate 416 -401 -415 0
-401 -416 0
-415 -416 0
401 415 416 0
c gate 417 -414 416 0
-414 -417 0
416 -417 0
414 -416 417 0
c gate 418 -9 -417 0
-9 -418 0
-417 -418 0
9 417 418 0
c gate 419 11 -416 0
11 -419 0
-416 -419 0
-11 416 419 0
c gate 420 -414 419 0
-414 -420 0
419 -420 0
414 -419 420 0
c gate 421 401 410 0
401 -421 0
410 -421 0
-401 -410 421 0
c gate 422 406 -421 0
406 -422 0
-421 -422 0
-406 421 422 0
c gate 423 -420 422 0
-420 -423 0
422 -423 0
420 -422 423 0
c gate 424 -418 -423 0
-418 -424 0
-423 -424 0
418 423 424 0
c gate 425 9 386 0
9 -425 0
386 -425 0
-9 -386 425 0
c gate 426 -387 -425 0
-387 -426 0
-425 -426 0
387 425 426 0
c gate 427 411 -426 0
411 -427 0
-426 -427 0
-411 426 427 0
c gate 428 -3 -427 0
-3 -428 0
-427 -428 0
3 427 428 0
c gate 429 -424 428 0
-424 -429 0
428 -429 0
424 -428 429 0
c gate 430 -409 -429 0
-409 -430 0
-429 -430 0
409 429 430 0
c gate 431 -3 -329 0
-3 -431 0
-329 -431 0
3 329 431 0
c gate 432 -413 416 0
-413 -432 0
416 -432 0
413 -416 432 0
c gate 433 431 -432 0
431 -433 0
-432 -433 0
-431 432 433 0
c gate 434 380 -399 0
380 -434 0
-399 -434 0
-380 399 434 0
c gate 435 402 -431 0
402 -435 0
-431 -435 0
-402 431 435 0
c gate 436 -434 -435 0
-434 -436 0
-435 -436 0
434 435 436 0
c gate 437 -433 436 0
-433 -437 0
436 -437 0
433 -436 437 0
c gate 438 9 -437 0
9 -438 0
-437 -438 0
-9 437 438 0
c gate 439 -3 -379 0
-3 -439 0
-379 -439 0
3 379 439 0
c gate 440 -413 439 0
-413 -440 0
439 -440 0
413 -439 440 0
c gate 441 -9 -380 0
-9 -441 0
-380 -441 0
9 380 441 0
c gate 442 -440 441 0
-440 -442 0
441 -442 0
440 -441 442 0
c gate 443 -438 -442 0
-438 -443 0
-442 -443 0
438 442 443 0
c gate 444 -430 443 0
-430 -444 0
443 -444 0
430 -443 444 0
c gate 445 430 -443 0
430 -445 0
-443 -445 0
-430 443 445 0
c gate 446 -444 -445 0
-444 -446 0
-445 -446 0
444 445 446 0
c gate 447 -378 -446 0
-378 -447 0
-446 -447 0
378 446 447 0
c gate 448 -377 447 0
-377 -448 0
447 -448 0
377 -447 448 0
c gate 449 -376 448 0
-376 -449 0
448 -449 0
376 -448 449 0
c gate 450 -286 449 0
-286 -450 0
449 -450 0
286 -449 450 0
c gate 451 -285 450 0
-285 -451 0
450 -451 0
285 -450 451 0
c gate 452 -284 451 0
-284 -452 0
451 -452 0
284 -451 452 0
c gate 453 -283 452 0
-283 -453 0
452 -453 0
283 -452 453 0
c PO
-453 0
